1, 52, 30, 23, 32, 35, 31, 29, 28, 27, 21, 22, 53, 15, 1
1, 17, 26, 25, 44, 47, 45, 46, 51, 37, 24, 36, 1
1, 14, 18, 16, 2, 3, 7, 4, 6, 5, 13, 9, 12, 11, 10, 8, 19, 1
1, 20, 38, 40, 41, 49, 48, 50, 43, 42, 39, 34, 33, 1
